synthesis/NR_LIA/sl/sygus-jmbl_fg_array_sum_2_5.sl
;; From [SyGuS competition: https://github.com/SyGuS-Org/benchmarks/tree/7e52de6/comp/2019/CLIA_Track/from_2018]

(set-logic LIA)

(synth-fun fnd_sum ((y1 Int) (y2 Int)) Int)

(declare-var x1 Int)
(declare-var x2 Int)
(constraint (=> (> (+ x1 x2) 5) (= (fnd_sum x1 x2) (+ x1 x2))))
(constraint (=> (<= (+ x1 x2) 5) (= (fnd_sum x1 x2) 0)))

(check-synth)

